experiment/data/lkh-res/Vrp-Set-X-n275/Vrp-Set-X-n275-lkh/0.lkh1.vrp
NAME : 0
COMMENT : CVRP Instance
TYPE : CVRP
DIMENSION : 275
EDGE_WEIGHT_TYPE : EUC_2D
CAPACITY : 10
NODE_COORD_SECTION
1	40900	41800
2	37800	22000
3	46900	58500
4	9100	69500
5	35100	13000
6	42400	10100
7	7000	69300
8	32400	13300
9	36700	21500
10	21800	90600
11	9000	68800
12	41700	22300
13	4200	69300
14	13400	48200
15	59400	48800
16	43100	26900
17	38300	60600
18	10000	59700
19	8500	69700
20	37800	21800
21	19600	64000
22	21300	63500
23	52000	53700
24	50900	54200
25	38800	54900
26	47600	58300
27	40900	56500
28	15500	82800
29	6000	69000
30	41500	26900
31	12700	57800
32	36300	30400
33	39200	32900
34	42400	66000
35	50500	68300
36	37200	12000
37	43800	62000
38	57800	42100
39	11600	71600
40	10700	71900
41	11700	67700
42	32400	27500
43	24600	78900
44	36300	22300
45	13900	68200
46	37600	19700
47	39700	5200
48	10700	72700
49	6400	67100
50	36900	27500
51	9600	65900
52	12900	62700
53	4500	58100
54	40300	58500
55	7000	73100
56	52800	73600
57	37900	32000
58	42400	60800
59	43600	60700
60	5400	68700
61	34200	54400
62	59500	52500
63	50800	33600
64	33800	9000
65	51000	16500
66	26900	82000
67	1800	77600
68	31600	29300
69	57500	48500
70	33500	17900
71	100	72700
72	57100	43600
73	1500	69600
74	22700	76000
75	32400	53800
76	52300	51900
77	62000	50000
78	21700	42700
79	5300	80900
80	20600	62200
81	60200	50600
82	4800	77100
83	48600	34700
84	10000	74000
85	16100	66000
86	52800	55900
87	38600	46000
88	33000	29500
89	22500	34500
90	30100	72900
91	33400	24300
92	9900	81900
93	21900	61000
94	7000	56000
95	33400	16100
96	58900	42000
97	42800	60500
98	47800	50900
99	7600	75300
100	46400	16700
101	1800	32700
102	45100	6300
103	40600	14500
104	43100	60800
105	21300	70700
106	9500	63500
107	55000	57300
108	17200	81100
109	8500	78900
110	11900	78800
111	34800	21000
112	57100	22700
113	36400	34700
114	59100	42800
115	43600	61100
116	47100	92800
117	41600	52800
118	50400	38300
119	21700	25500
120	25500	72000
121	10000	83000
122	8200	69300
123	29000	20900
124	52200	28100
125	33100	40600
126	42600	24400
127	52900	61800
128	63800	9900
129	15300	64800
130	12400	71900
131	41900	7000
132	1200	65300
133	43300	16900
134	37000	68600
135	81100	62000
136	16000	69100
137	20400	67300
138	5700	66600
139	32600	40100
140	62700	54100
141	33200	11400
142	49700	57500
143	46900	60500
144	4900	64800
145	54700	58800
146	30500	74600
147	19200	80500
148	37000	62100
149	75900	66000
150	8900	75700
151	28700	22300
152	38000	12900
153	28600	38600
154	2300	74500
155	2100	73800
156	44100	68300
157	40200	57700
158	25500	44200
159	26000	28800
160	32200	69300
161	50200	31300
162	43100	47300
163	10600	70100
164	39000	39800
165	44300	17500
166	33500	27200
167	15600	17800
168	39000	22500
169	19400	86700
170	17000	62100
171	31100	24100
172	35800	32300
173	42700	91100
174	55500	23900
175	5500	78100
176	37400	56600
177	38800	26300
178	35200	70100
179	8200	67100
180	45100	56500
181	9100	83300
182	29200	60900
183	46600	59200
184	56100	48800
185	13100	77900
186	18600	69900
187	56700	52500
188	63500	48100
189	40400	51200
190	45900	69400
191	45600	39900
192	9100	72500
193	48300	19600
194	31700	46000
195	12800	82400
196	48100	17900
197	51700	44200
198	9700	70500
199	26300	80600
200	38100	21500
201	38600	16400
202	49700	13700
203	31100	73700
204	10000	61100
205	41400	52500
206	7900	64300
207	28400	31800
208	15500	70600
209	42600	66100
210	29700	16400
211	45400	19700
212	49900	69700
213	48000	31000
214	14500	69200
215	39000	23600
216	35000	33300
217	60500	46000
218	70900	39100
219	42600	19200
220	9800	76700
221	14100	67200
222	39900	68400
223	10700	85300
224	5600	77400
225	30900	26600
226	37600	51000
227	20500	77100
228	10500	67600
229	68200	50800
230	23600	17300
231	25600	31100
232	5900	71300
233	30700	27800
234	73500	52400
235	56600	71100
236	32000	43700
237	7100	84400
238	1800	73700
239	43000	55900
240	8500	47900
241	37600	27600
242	17100	40000
243	43000	23700
244	20100	58800
245	47800	59300
246	29100	13200
247	46400	58200
248	66900	49400
249	56200	73300
250	29800	17300
251	43800	56700
252	40200	20600
253	15000	29100
254	36400	56100
255	41500	58000
256	8700	69300
257	50200	75100
258	13200	83100
259	57400	48100
260	1900	70700
261	48600	59000
262	39900	20500
263	16500	71200
264	6300	74600
265	5000	74000
266	51400	24600
267	40000	61700
268	42100	16200
269	49700	58200
270	26000	81700
271	4000	76800
272	5800	72100
273	33200	61400
274	19000	87800
275	34600	21800
DEMAND_SECTION
1	0
2	1
3	1
4	1
5	1
6	1
7	1
8	1
9	1
10	1
11	1
12	1
13	1
14	1
15	1
16	1
17	1
18	1
19	1
20	1
21	1
22	1
23	1
24	1
25	1
26	1
27	1
28	1
29	1
30	1
31	1
32	1
33	1
34	1
35	1
36	1
37	1
38	1
39	1
40	1
41	1
42	1
43	1
44	1
45	1
46	1
47	1
48	1
49	1
50	1
51	1
52	1
53	1
54	1
55	1
56	1
57	1
58	1
59	1
60	1
61	1
62	1
63	1
64	1
65	1
66	1
67	1
68	1
69	1
70	1
71	1
72	1
73	1
74	1
75	1
76	1
77	1
78	1
79	1
80	1
81	1
82	1
83	1
84	1
85	1
86	1
87	1
88	1
89	1
90	1
91	1
92	1
93	1
94	1
95	1
96	1
97	1
98	1
99	1
100	1
101	1
102	1
103	1
104	1
105	1
106	1
107	1
108	1
109	1
110	1
111	1
112	1
113	1
114	1
115	1
116	1
117	1
118	1
119	1
120	1
121	1
122	1
123	1
124	1
125	1
126	1
127	1
128	1
129	1
130	1
131	1
132	1
133	1
134	1
135	1
136	1
137	1
138	1
139	1
140	1
141	1
142	1
143	1
144	1
145	1
146	1
147	1
148	1
149	1
150	1
151	1
152	1
153	1
154	1
155	1
156	1
157	1
158	1
159	1
160	1
161	1
162	1
163	1
164	1
165	1
166	1
167	1
168	1
169	1
170	1
171	1
172	1
173	1
174	1
175	1
176	1
177	1
178	1
179	1
180	1
181	1
182	1
183	1
184	1
185	1
186	1
187	1
188	1
189	1
190	1
191	1
192	1
193	1
194	1
195	1
196	1
197	1
198	1
199	1
200	1
201	1
202	1
203	1
204	1
205	1
206	1
207	1
208	1
209	1
210	1
211	1
212	1
213	1
214	1
215	1
216	1
217	1
218	1
219	1
220	1
221	1
222	1
223	1
224	1
225	1
226	1
227	1
228	1
229	1
230	1
231	1
232	1
233	1
234	1
235	1
236	1
237	1
238	1
239	1
240	1
241	1
242	1
243	1
244	1
245	1
246	1
247	1
248	1
249	1
250	1
251	1
252	1
253	1
254	1
255	1
256	1
257	1
258	1
259	1
260	1
261	1
262	1
263	1
264	1
265	1
266	1
267	1
268	1
269	1
270	1
271	1
272	1
273	1
274	1
275	1
DEPOT_SECTION
1
-1
EOF
