experiment/data/lkh-res/Vrp-Set-X-n275/Vrp-Set-X-n275-lkh/0.lkh1.tour
NAME : 0.2149669.tour
COMMENT : Length = 2149669
COMMENT : Found by LKH-3 [Keld Helsgaun] Tue Apr  9 05:20:23 2024
TYPE : TOUR
DIMENSION : 302
TOUR_SECTION
1
17
148
273
160
178
134
222
209
34
267
301
239
251
183
143
245
261
26
3
247
180
289
184
259
69
15
81
77
188
217
72
197
293
193
196
100
202
65
128
112
174
266
124
298
185
110
195
258
28
108
147
227
74
120
288
44
9
46
201
103
268
133
165
211
243
297
244
170
129
221
45
85
21
22
80
93
285
171
151
123
230
167
119
253
101
242
78
294
218
248
229
234
135
149
140
62
187
76
277
16
126
12
252
262
200
20
2
168
215
299
182
105
186
263
208
130
39
214
136
137
283
158
14
240
94
53
206
106
204
18
31
276
191
118
38
114
96
63
161
213
83
290
35
212
235
249
56
257
116
173
190
156
287
144
132
73
260
13
60
29
138
49
51
295
98
24
23
86
107
145
127
269
142
162
278
166
91
250
210
246
8
95
70
111
275
300
27
255
97
104
59
115
37
58
54
157
292
152
36
5
141
64
47
131
102
6
219
302
164
125
139
236
194
286
84
150
220
109
79
237
223
181
121
92
291
40
48
192
55
264
265
272
232
7
179
296
153
89
231
159
207
68
233
225
42
88
281
33
57
30
177
241
50
32
172
216
113
280
203
146
199
270
66
10
274
169
43
90
279
71
238
155
154
67
271
82
175
224
99
282
52
228
11
256
122
19
4
198
163
41
284
189
205
117
25
176
254
61
75
226
87
-1
EOF
